SKUs = {
  "BRAKE_PAD_1_005",
  "BRAKE_PAD_1_049",
  "BRAKE_PAD_1_079",
  "BRAKE_PAD_1_083",
  "BRAKE_PAD_1_097",
  "BRAKE_PAD_1_108",
  "BRAKE_PAD_1_115",
  "BRAKE_PAD_1_124",
  "BRAKE_PAD_1_125",
  "BRAKE_PAD_1_148",
  "BRAKE_PAD_1_150",
  "BRAKE_PAD_1_176",
  "BRAKE_PAD_1_177",
  "BRAKE_PAD_1_179",
  "BRAKE_PAD_1_181",
  "BRAKE_PAD_1_183",
  "BRAKE_PAD_2_003",
  "BRAKE_PAD_2_007",
  "BRAKE_PAD_2_031",
  "BRAKE_PAD_2_042",
  "BRAKE_PAD_2_045",
  "BRAKE_PAD_2_052",
  "BRAKE_PAD_2_078",
  "BRAKE_PAD_2_096",
  "BRAKE_PAD_2_116",
  "BRAKE_PAD_2_124",
  "BRAKE_PAD_2_126",
  "BRAKE_PAD_2_127",
  "BRAKE_PAD_2_130",
  "BRAKE_PAD_2_146",
  "BRAKE_PAD_2_159",
  "BRAKE_PAD_2_166",
  "BRAKE_PAD_2_172",
  "BRAKE_PAD_2_173",
  "BRAKE_PAD_2_181",
  "BRAKE_PAD_2_182",
  "BRAKE_PAD_2_183",
  "BRAKE_PAD_2_184",
  "BRAKE_PAD_2_188",
  "BRAKE_PAD_2_207",
  "BRAKE_PAD_2_210",
  "BRAKE_PAD_2_212",
  "BRAKE_PAD_2_223",
  "BRAKE_PAD_2_254",
  "BRAKE_PAD_2_259",
  "BRAKE_PAD_2_285",
  "BRAKE_PAD_2_295",
  "BRAKE_PAD_2_303",
  "BRAKE_PAD_2_311",
  "BRAKE_PAD_2_317",
  "BRAKE_PAD_2_324",
  "BRAKE_PAD_2_332",
  "BRAKE_PAD_2_346",
  "BRAKE_PAD_2_348",
  "BRAKE_PAD_2_352",
  "BRAKE_PAD_2_355",
  "BRAKE_PAD_2_361",
  "BRAKE_PAD_2_368",
  "BRAKE_PAD_2_369",
  "BRAKE_PAD_2_382",
  "BRAKE_PAD_2_387",
  "BRAKE_PAD_2_393",
  "BRAKE_PAD_3_008",
  "BRAKE_PAD_3_009",
  "BRAKE_PAD_3_023",
  "BRAKE_PAD_3_030",
  "BRAKE_PAD_3_033",
  "BRAKE_PAD_3_034",
  "BRAKE_PAD_3_045",
  "BRAKE_PAD_3_046",
  "BRAKE_PAD_3_049",
  "BRAKE_PAD_3_062",
  "BRAKE_PAD_3_063",
  "BRAKE_PAD_3_072",
  "BRAKE_PAD_3_075",
  "BRAKE_PAD_3_087",
  "BRAKE_PAD_3_096",
  "BRAKE_PAD_3_098",
  "BRAKE_PAD_3_118",
  "BRAKE_PAD_3_121",
  "BRAKE_PAD_3_123",
  "BRAKE_PAD_3_134",
  "BRAKE_PAD_3_137",
  "BRAKE_PAD_3_149",
  "BRAKE_PAD_3_161",
  "BRAKE_PAD_3_165",
  "BRAKE_PAD_3_170",
  "BRAKE_PAD_3_176",
  "BRAKE_PAD_3_179",
  "BRAKE_PAD_3_180",
  "BRAKE_PAD_3_192",
  "BRAKE_PAD_3_198",
  "BRAKE_PAD_3_224",
  "BRAKE_PAD_3_227",
  "BRAKE_PAD_3_288",
  "BRAKE_PAD_3_295",
  "BRAKE_PAD_3_307"
};

Regions = {
  "CA",
  "TX",
  "WI"
};

unit_cost = #[
  "BRAKE_PAD_1_005": 3.3300,
  "BRAKE_PAD_1_049": 2.2300,
  "BRAKE_PAD_1_079": 5.6100,
  "BRAKE_PAD_1_083": 1.9800,
  "BRAKE_PAD_1_097": 0.9800,
  "BRAKE_PAD_1_108": 2.5000,
  "BRAKE_PAD_1_115": 3.2700,
  "BRAKE_PAD_1_124": 2.1700,
  "BRAKE_PAD_1_125": 5.1600,
  "BRAKE_PAD_1_148": 5.3700,
  "BRAKE_PAD_1_150": 4.8900,
  "BRAKE_PAD_1_176": 3.2300,
  "BRAKE_PAD_1_177": 8.6000,
  "BRAKE_PAD_1_179": 3.5800,
  "BRAKE_PAD_1_181": 1.3100,
  "BRAKE_PAD_1_183": 2.9500,
  "BRAKE_PAD_2_003": 2.1800,
  "BRAKE_PAD_2_007": 2.7800,
  "BRAKE_PAD_2_031": 2.0900,
  "BRAKE_PAD_2_042": 2.0300,
  "BRAKE_PAD_2_045": 6.9800,
  "BRAKE_PAD_2_052": 12.9100,
  "BRAKE_PAD_2_078": 9.9200,
  "BRAKE_PAD_2_096": 7.9700,
  "BRAKE_PAD_2_116": 1.9700,
  "BRAKE_PAD_2_124": 2.7900,
  "BRAKE_PAD_2_126": 4.6500,
  "BRAKE_PAD_2_127": 7.1500,
  "BRAKE_PAD_2_130": 1.5600,
  "BRAKE_PAD_2_146": 1.9700,
  "BRAKE_PAD_2_159": 3.9600,
  "BRAKE_PAD_2_166": 2.1800,
  "BRAKE_PAD_2_172": 2.4600,
  "BRAKE_PAD_2_173": 8.7500,
  "BRAKE_PAD_2_181": 1.8500,
  "BRAKE_PAD_2_182": 1.9200,
  "BRAKE_PAD_2_183": 8.7500,
  "BRAKE_PAD_2_184": 4.8200,
  "BRAKE_PAD_2_188": 2.7800,
  "BRAKE_PAD_2_207": 7.4000,
  "BRAKE_PAD_2_210": 3.7100,
  "BRAKE_PAD_2_212": 4.6500,
  "BRAKE_PAD_2_223": 2.1800,
  "BRAKE_PAD_2_254": 6.2500,
  "BRAKE_PAD_2_259": 3.6400,
  "BRAKE_PAD_2_285": 3.3900,
  "BRAKE_PAD_2_295": 11.7400,
  "BRAKE_PAD_2_303": 2.1700,
  "BRAKE_PAD_2_311": 2.3900,
  "BRAKE_PAD_2_317": 12.8900,
  "BRAKE_PAD_2_324": 2.5000,
  "BRAKE_PAD_2_332": 3.2400,
  "BRAKE_PAD_2_346": 2.3800,
  "BRAKE_PAD_2_348": 5.9400,
  "BRAKE_PAD_2_352": 10.7200,
  "BRAKE_PAD_2_355": 2.7000,
  "BRAKE_PAD_2_361": 3.8900,
  "BRAKE_PAD_2_368": 7.4900,
  "BRAKE_PAD_2_369": 4.8700,
  "BRAKE_PAD_2_382": 3.5800,
  "BRAKE_PAD_2_387": 12.9700,
  "BRAKE_PAD_2_393": 3.8600,
  "BRAKE_PAD_3_008": 0.7700,
  "BRAKE_PAD_3_009": 2.2400,
  "BRAKE_PAD_3_023": 3.9500,
  "BRAKE_PAD_3_030": 1.3200,
  "BRAKE_PAD_3_033": 2.5000,
  "BRAKE_PAD_3_034": 2.5000,
  "BRAKE_PAD_3_045": 3.9700,
  "BRAKE_PAD_3_046": 1.9700,
  "BRAKE_PAD_3_049": 4.6600,
  "BRAKE_PAD_3_062": 2.8300,
  "BRAKE_PAD_3_063": 2.1700,
  "BRAKE_PAD_3_072": 2.4400,
  "BRAKE_PAD_3_075": 2.8700,
  "BRAKE_PAD_3_087": 2.5000,
  "BRAKE_PAD_3_096": 4.3200,
  "BRAKE_PAD_3_098": 4.2800,
  "BRAKE_PAD_3_118": 1.1600,
  "BRAKE_PAD_3_121": 2.9800,
  "BRAKE_PAD_3_123": 2.2100,
  "BRAKE_PAD_3_134": 6.6000,
  "BRAKE_PAD_3_137": 2.5000,
  "BRAKE_PAD_3_149": 2.4000,
  "BRAKE_PAD_3_161": 1.9800,
  "BRAKE_PAD_3_165": 3.2800,
  "BRAKE_PAD_3_170": 1.9800,
  "BRAKE_PAD_3_176": 1.5100,
  "BRAKE_PAD_3_179": 4.3200,
  "BRAKE_PAD_3_180": 2.9500,
  "BRAKE_PAD_3_192": 5.4800,
  "BRAKE_PAD_3_198": 5.9100,
  "BRAKE_PAD_3_224": 3.8700,
  "BRAKE_PAD_3_227": 2.6000,
  "BRAKE_PAD_3_288": 1.5000,
  "BRAKE_PAD_3_295": 0.8100,
  "BRAKE_PAD_3_307": 3.9300,
]#;

original_holding_cost = #[
  "BRAKE_PAD_1_005": 464.9100,
  "BRAKE_PAD_1_049": 246.1100,
  "BRAKE_PAD_1_079": 240.0000,
  "BRAKE_PAD_1_083": 547.9600,
  "BRAKE_PAD_1_097": 271.5000,
  "BRAKE_PAD_1_108": 461.9000,
  "BRAKE_PAD_1_115": 367.2900,
  "BRAKE_PAD_1_124": 436.7300,
  "BRAKE_PAD_1_125": 434.2600,
  "BRAKE_PAD_1_148": 259.2700,
  "BRAKE_PAD_1_150": 431.8000,
  "BRAKE_PAD_1_176": 515.7000,
  "BRAKE_PAD_1_177": 636.0600,
  "BRAKE_PAD_1_179": 228.0600,
  "BRAKE_PAD_1_181": 314.9200,
  "BRAKE_PAD_1_183": 760.8300,
  "BRAKE_PAD_2_003": 428.3500,
  "BRAKE_PAD_2_007": 248.1900,
  "BRAKE_PAD_2_031": 451.4500,
  "BRAKE_PAD_2_042": 458.3800,
  "BRAKE_PAD_2_045": 457.5400,
  "BRAKE_PAD_2_052": 759.0400,
  "BRAKE_PAD_2_078": 793.0400,
  "BRAKE_PAD_2_096": 320.0000,
  "BRAKE_PAD_2_116": 352.7100,
  "BRAKE_PAD_2_124": 360.2400,
  "BRAKE_PAD_2_126": 437.4500,
  "BRAKE_PAD_2_127": 336.7800,
  "BRAKE_PAD_2_130": 333.3800,
  "BRAKE_PAD_2_146": 323.6500,
  "BRAKE_PAD_2_159": 217.7600,
  "BRAKE_PAD_2_166": 426.9900,
  "BRAKE_PAD_2_172": 241.9900,
  "BRAKE_PAD_2_173": 638.6100,
  "BRAKE_PAD_2_181": 868.2400,
  "BRAKE_PAD_2_182": 367.5500,
  "BRAKE_PAD_2_183": 907.5100,
  "BRAKE_PAD_2_184": 1039.3000,
  "BRAKE_PAD_2_188": 320.1800,
  "BRAKE_PAD_2_207": 425.9000,
  "BRAKE_PAD_2_210": 306.5500,
  "BRAKE_PAD_2_212": 661.2300,
  "BRAKE_PAD_2_223": 212.9400,
  "BRAKE_PAD_2_254": 203.3100,
  "BRAKE_PAD_2_259": 340.2600,
  "BRAKE_PAD_2_285": 1330.8500,
  "BRAKE_PAD_2_295": 805.1200,
  "BRAKE_PAD_2_303": 444.7300,
  "BRAKE_PAD_2_311": 466.5100,
  "BRAKE_PAD_2_317": 618.4500,
  "BRAKE_PAD_2_324": 361.1300,
  "BRAKE_PAD_2_332": 338.4800,
  "BRAKE_PAD_2_346": 557.3200,
  "BRAKE_PAD_2_348": 562.5100,
  "BRAKE_PAD_2_352": 607.0600,
  "BRAKE_PAD_2_355": 274.6700,
  "BRAKE_PAD_2_361": 501.5000,
  "BRAKE_PAD_2_368": 1261.9300,
  "BRAKE_PAD_2_369": 343.6500,
  "BRAKE_PAD_2_382": 498.5900,
  "BRAKE_PAD_2_387": 725.8500,
  "BRAKE_PAD_2_393": 440.6000,
  "BRAKE_PAD_3_008": 421.5800,
  "BRAKE_PAD_3_009": 250.6500,
  "BRAKE_PAD_3_023": 490.5000,
  "BRAKE_PAD_3_030": 450.9800,
  "BRAKE_PAD_3_033": 236.9600,
  "BRAKE_PAD_3_034": 603.0400,
  "BRAKE_PAD_3_045": 395.8200,
  "BRAKE_PAD_3_046": 193.1900,
  "BRAKE_PAD_3_049": 343.3100,
  "BRAKE_PAD_3_062": 349.6300,
  "BRAKE_PAD_3_063": 389.6200,
  "BRAKE_PAD_3_072": 333.3200,
  "BRAKE_PAD_3_075": 211.9000,
  "BRAKE_PAD_3_087": 625.2300,
  "BRAKE_PAD_3_096": 573.2400,
  "BRAKE_PAD_3_098": 567.7000,
  "BRAKE_PAD_3_118": 459.8500,
  "BRAKE_PAD_3_121": 665.7600,
  "BRAKE_PAD_3_123": 177.1400,
  "BRAKE_PAD_3_134": 659.9700,
  "BRAKE_PAD_3_137": 195.4700,
  "BRAKE_PAD_3_149": 236.0900,
  "BRAKE_PAD_3_161": 277.9900,
  "BRAKE_PAD_3_165": 155.3200,
  "BRAKE_PAD_3_170": 238.8700,
  "BRAKE_PAD_3_176": 456.8500,
  "BRAKE_PAD_3_179": 355.2500,
  "BRAKE_PAD_3_180": 235.7200,
  "BRAKE_PAD_3_192": 438.9500,
  "BRAKE_PAD_3_198": 392.5600,
  "BRAKE_PAD_3_224": 629.5300,
  "BRAKE_PAD_3_227": 511.3000,
  "BRAKE_PAD_3_288": 1096.5400,
  "BRAKE_PAD_3_295": 571.0800,
  "BRAKE_PAD_3_307": 933.8700,
]#;

original_ordering_cost = #[
  "BRAKE_PAD_1_005": 170.6600,
  "BRAKE_PAD_1_049": 61.2900,
  "BRAKE_PAD_1_079": 59.8900,
  "BRAKE_PAD_1_083": 229.2000,
  "BRAKE_PAD_1_097": 123.1400,
  "BRAKE_PAD_1_108": 167.8300,
  "BRAKE_PAD_1_115": 120.6000,
  "BRAKE_PAD_1_124": 185.7600,
  "BRAKE_PAD_1_125": 164.3900,
  "BRAKE_PAD_1_148": 64.5500,
  "BRAKE_PAD_1_150": 107.1000,
  "BRAKE_PAD_1_176": 134.1400,
  "BRAKE_PAD_1_177": 190.5700,
  "BRAKE_PAD_1_179": 57.3700,
  "BRAKE_PAD_1_181": 118.2600,
  "BRAKE_PAD_1_183": 389.7800,
  "BRAKE_PAD_2_003": 174.8600,
  "BRAKE_PAD_2_007": 61.8100,
  "BRAKE_PAD_2_031": 197.9400,
  "BRAKE_PAD_2_042": 205.2300,
  "BRAKE_PAD_2_045": 113.5400,
  "BRAKE_PAD_2_052": 274.4700,
  "BRAKE_PAD_2_078": 351.9600,
  "BRAKE_PAD_2_096": 79.9900,
  "BRAKE_PAD_2_116": 127.2800,
  "BRAKE_PAD_2_124": 113.1900,
  "BRAKE_PAD_2_126": 157.9100,
  "BRAKE_PAD_2_127": 83.6300,
  "BRAKE_PAD_2_130": 149.7200,
  "BRAKE_PAD_2_146": 126.2600,
  "BRAKE_PAD_2_159": 54.2200,
  "BRAKE_PAD_2_166": 165.8600,
  "BRAKE_PAD_2_172": 86.3600,
  "BRAKE_PAD_2_173": 240.9300,
  "BRAKE_PAD_2_181": 555.3000,
  "BRAKE_PAD_2_182": 137.3300,
  "BRAKE_PAD_2_183": 406.8600,
  "BRAKE_PAD_2_184": 468.6400,
  "BRAKE_PAD_2_188": 106.2200,
  "BRAKE_PAD_2_207": 113.1600,
  "BRAKE_PAD_2_210": 106.7600,
  "BRAKE_PAD_2_212": 294.1300,
  "BRAKE_PAD_2_223": 72.0800,
  "BRAKE_PAD_2_254": 50.6700,
  "BRAKE_PAD_2_259": 85.6800,
  "BRAKE_PAD_2_285": 326.8900,
  "BRAKE_PAD_2_295": 310.7700,
  "BRAKE_PAD_2_303": 145.0700,
  "BRAKE_PAD_2_311": 231.3800,
  "BRAKE_PAD_2_317": 152.9200,
  "BRAKE_PAD_2_324": 143.5500,
  "BRAKE_PAD_2_332": 84.1900,
  "BRAKE_PAD_2_346": 294.1400,
  "BRAKE_PAD_2_348": 168.5300,
  "BRAKE_PAD_2_352": 175.7400,
  "BRAKE_PAD_2_355": 102.6900,
  "BRAKE_PAD_2_361": 196.0100,
  "BRAKE_PAD_2_368": 650.3000,
  "BRAKE_PAD_2_369": 116.4400,
  "BRAKE_PAD_2_382": 214.1200,
  "BRAKE_PAD_2_387": 258.7700,
  "BRAKE_PAD_2_393": 143.5500,
  "BRAKE_PAD_3_008": 145.2400,
  "BRAKE_PAD_3_009": 95.0800,
  "BRAKE_PAD_3_023": 203.3900,
  "BRAKE_PAD_3_030": 195.0700,
  "BRAKE_PAD_3_033": 80.0000,
  "BRAKE_PAD_3_034": 252.4900,
  "BRAKE_PAD_3_045": 123.8700,
  "BRAKE_PAD_3_046": 51.3200,
  "BRAKE_PAD_3_049": 86.9600,
  "BRAKE_PAD_3_062": 128.7300,
  "BRAKE_PAD_3_063": 153.5200,
  "BRAKE_PAD_3_072": 133.1500,
  "BRAKE_PAD_3_075": 52.8000,
  "BRAKE_PAD_3_087": 356.1000,
  "BRAKE_PAD_3_096": 251.5500,
  "BRAKE_PAD_3_098": 262.0500,
  "BRAKE_PAD_3_118": 248.8000,
  "BRAKE_PAD_3_121": 347.0700,
  "BRAKE_PAD_3_123": 44.1600,
  "BRAKE_PAD_3_134": 247.9600,
  "BRAKE_PAD_3_137": 59.3900,
  "BRAKE_PAD_3_149": 64.2700,
  "BRAKE_PAD_3_161": 94.5100,
  "BRAKE_PAD_3_165": 38.7300,
  "BRAKE_PAD_3_170": 86.7800,
  "BRAKE_PAD_3_176": 191.1600,
  "BRAKE_PAD_3_179": 106.9400,
  "BRAKE_PAD_3_180": 71.8300,
  "BRAKE_PAD_3_192": 196.4200,
  "BRAKE_PAD_3_198": 106.1000,
  "BRAKE_PAD_3_224": 287.6900,
  "BRAKE_PAD_3_227": 235.7000,
  "BRAKE_PAD_3_288": 686.6000,
  "BRAKE_PAD_3_295": 306.2700,
  "BRAKE_PAD_3_307": 523.4800,
]#;

original_stockout_cost = #[
  "BRAKE_PAD_1_005": 198.3100,
  "BRAKE_PAD_1_049": 289.2800,
  "BRAKE_PAD_1_079": 277.2600,
  "BRAKE_PAD_1_083": 239.1700,
  "BRAKE_PAD_1_097": 191.8800,
  "BRAKE_PAD_1_108": 161.7300,
  "BRAKE_PAD_1_115": 255.3900,
  "BRAKE_PAD_1_124": 141.8500,
  "BRAKE_PAD_1_125": 495.2000,
  "BRAKE_PAD_1_148": 323.8200,
  "BRAKE_PAD_1_150": 305.4400,
  "BRAKE_PAD_1_176": 214.3000,
  "BRAKE_PAD_1_177": 328.5600,
  "BRAKE_PAD_1_179": 285.5700,
  "BRAKE_PAD_1_181": 236.1000,
  "BRAKE_PAD_1_183": 527.2900,
  "BRAKE_PAD_2_003": 147.8600,
  "BRAKE_PAD_2_007": 308.3200,
  "BRAKE_PAD_2_031": 201.7800,
  "BRAKE_PAD_2_042": 163.9500,
  "BRAKE_PAD_2_045": 389.9300,
  "BRAKE_PAD_2_052": 423.6500,
  "BRAKE_PAD_2_078": 613.0100,
  "BRAKE_PAD_2_096": 454.2100,
  "BRAKE_PAD_2_116": 244.8500,
  "BRAKE_PAD_2_124": 322.6300,
  "BRAKE_PAD_2_126": 203.3000,
  "BRAKE_PAD_2_127": 170.8800,
  "BRAKE_PAD_2_130": 231.9100,
  "BRAKE_PAD_2_146": 242.1900,
  "BRAKE_PAD_2_159": 197.4900,
  "BRAKE_PAD_2_166": 182.3400,
  "BRAKE_PAD_2_172": 386.2700,
  "BRAKE_PAD_2_173": 417.8900,
  "BRAKE_PAD_2_181": 472.9500,
  "BRAKE_PAD_2_182": 284.8600,
  "BRAKE_PAD_2_183": 754.8200,
  "BRAKE_PAD_2_184": 945.9800,
  "BRAKE_PAD_2_188": 219.6100,
  "BRAKE_PAD_2_207": 319.0000,
  "BRAKE_PAD_2_210": 452.6200,
  "BRAKE_PAD_2_212": 348.5900,
  "BRAKE_PAD_2_223": 288.0200,
  "BRAKE_PAD_2_254": 282.8300,
  "BRAKE_PAD_2_259": 499.3100,
  "BRAKE_PAD_2_285": 1930.1000,
  "BRAKE_PAD_2_295": 588.8300,
  "BRAKE_PAD_2_303": 217.1500,
  "BRAKE_PAD_2_311": 176.4400,
  "BRAKE_PAD_2_317": 317.5700,
  "BRAKE_PAD_2_324": 334.5400,
  "BRAKE_PAD_2_332": 232.7800,
  "BRAKE_PAD_2_346": 695.9500,
  "BRAKE_PAD_2_348": 257.9200,
  "BRAKE_PAD_2_352": 939.9800,
  "BRAKE_PAD_2_355": 436.6900,
  "BRAKE_PAD_2_361": 227.7100,
  "BRAKE_PAD_2_368": 1259.6400,
  "BRAKE_PAD_2_369": 509.4300,
  "BRAKE_PAD_2_382": 236.9600,
  "BRAKE_PAD_2_387": 450.8000,
  "BRAKE_PAD_2_393": 413.1400,
  "BRAKE_PAD_3_008": 501.1700,
  "BRAKE_PAD_3_009": 407.2500,
  "BRAKE_PAD_3_023": 195.7600,
  "BRAKE_PAD_3_030": 190.4800,
  "BRAKE_PAD_3_033": 266.2000,
  "BRAKE_PAD_3_034": 305.6400,
  "BRAKE_PAD_3_045": 317.7200,
  "BRAKE_PAD_3_046": 177.9000,
  "BRAKE_PAD_3_049": 254.2900,
  "BRAKE_PAD_3_062": 250.5600,
  "BRAKE_PAD_3_063": 154.8300,
  "BRAKE_PAD_3_072": 305.3100,
  "BRAKE_PAD_3_075": 247.4700,
  "BRAKE_PAD_3_087": 284.4000,
  "BRAKE_PAD_3_096": 307.8200,
  "BRAKE_PAD_3_098": 228.1500,
  "BRAKE_PAD_3_118": 183.6600,
  "BRAKE_PAD_3_121": 348.4700,
  "BRAKE_PAD_3_123": 212.2500,
  "BRAKE_PAD_3_134": 336.1400,
  "BRAKE_PAD_3_137": 261.3900,
  "BRAKE_PAD_3_149": 297.4200,
  "BRAKE_PAD_3_161": 180.4500,
  "BRAKE_PAD_3_165": 114.1300,
  "BRAKE_PAD_3_170": 354.5700,
  "BRAKE_PAD_3_176": 221.7100,
  "BRAKE_PAD_3_179": 310.8900,
  "BRAKE_PAD_3_180": 291.3200,
  "BRAKE_PAD_3_192": 941.2600,
  "BRAKE_PAD_3_198": 245.8600,
  "BRAKE_PAD_3_224": 303.5100,
  "BRAKE_PAD_3_227": 235.8800,
  "BRAKE_PAD_3_288": 817.7400,
  "BRAKE_PAD_3_295": 251.1300,
  "BRAKE_PAD_3_307": 734.7500,
]#;

original_avg_inventory = #[
  "BRAKE_PAD_1_005": 776.1100,
  "BRAKE_PAD_1_049": 440.7900,
  "BRAKE_PAD_1_079": 171.1800,
  "BRAKE_PAD_1_083": 1537.7200,
  "BRAKE_PAD_1_097": 1539.1000,
  "BRAKE_PAD_1_108": 839.8200,
  "BRAKE_PAD_1_115": 510.7100,
  "BRAKE_PAD_1_124": 1119.5900,
  "BRAKE_PAD_1_125": 467.6200,
  "BRAKE_PAD_1_148": 193.2100,
  "BRAKE_PAD_1_150": 352.9100,
  "BRAKE_PAD_1_176": 887.5900,
  "BRAKE_PAD_1_177": 336.0500,
  "BRAKE_PAD_1_179": 353.9100,
  "BRAKE_PAD_1_181": 1088.5800,
  "BRAKE_PAD_1_183": 1431.4000,
  "BRAKE_PAD_2_003": 1090.8200,
  "BRAKE_PAD_2_007": 357.2200,
  "BRAKE_PAD_2_031": 1202.2500,
  "BRAKE_PAD_2_042": 1254.6300,
  "BRAKE_PAD_2_045": 262.3200,
  "BRAKE_PAD_2_052": 326.5200,
  "BRAKE_PAD_2_078": 444.2300,
  "BRAKE_PAD_2_096": 160.6600,
  "BRAKE_PAD_2_116": 815.5800,
  "BRAKE_PAD_2_124": 587.3200,
  "BRAKE_PAD_2_126": 522.7400,
  "BRAKE_PAD_2_127": 188.4000,
  "BRAKE_PAD_2_130": 1186.3300,
  "BRAKE_PAD_2_146": 914.6700,
  "BRAKE_PAD_2_159": 219.9600,
  "BRAKE_PAD_2_166": 1089.4300,
  "BRAKE_PAD_2_172": 546.4500,
  "BRAKE_PAD_2_173": 405.6300,
  "BRAKE_PAD_2_181": 2604.0900,
  "BRAKE_PAD_2_182": 868.4700,
  "BRAKE_PAD_2_183": 576.4300,
  "BRAKE_PAD_2_184": 1199.0500,
  "BRAKE_PAD_2_188": 639.5800,
  "BRAKE_PAD_2_207": 261.5000,
  "BRAKE_PAD_2_210": 375.4100,
  "BRAKE_PAD_2_212": 790.1300,
  "BRAKE_PAD_2_223": 542.6500,
  "BRAKE_PAD_2_254": 180.8600,
  "BRAKE_PAD_2_259": 424.9300,
  "BRAKE_PAD_2_285": 2179.0100,
  "BRAKE_PAD_2_295": 380.8400,
  "BRAKE_PAD_2_303": 1136.2500,
  "BRAKE_PAD_2_311": 1084.4700,
  "BRAKE_PAD_2_317": 266.5900,
  "BRAKE_PAD_2_324": 801.6900,
  "BRAKE_PAD_2_332": 418.3100,
  "BRAKE_PAD_2_346": 1300.9400,
  "BRAKE_PAD_2_348": 430.6200,
  "BRAKE_PAD_2_352": 314.5900,
  "BRAKE_PAD_2_355": 565.6300,
  "BRAKE_PAD_2_361": 716.7400,
  "BRAKE_PAD_2_368": 935.9400,
  "BRAKE_PAD_2_369": 320.7500,
  "BRAKE_PAD_2_382": 774.5200,
  "BRAKE_PAD_2_387": 310.9100,
  "BRAKE_PAD_2_393": 519.1400,
  "BRAKE_PAD_3_008": 3022.8000,
  "BRAKE_PAD_3_009": 621.1200,
  "BRAKE_PAD_3_023": 690.3000,
  "BRAKE_PAD_3_030": 1896.0500,
  "BRAKE_PAD_3_033": 430.8300,
  "BRAKE_PAD_3_034": 1339.4000,
  "BRAKE_PAD_3_045": 452.8800,
  "BRAKE_PAD_3_046": 444.9900,
  "BRAKE_PAD_3_049": 334.9600,
  "BRAKE_PAD_3_062": 561.9200,
  "BRAKE_PAD_3_063": 996.2900,
  "BRAKE_PAD_3_072": 757.6600,
  "BRAKE_PAD_3_075": 335.4800,
  "BRAKE_PAD_3_087": 1387.8200,
  "BRAKE_PAD_3_096": 737.7600,
  "BRAKE_PAD_3_098": 736.1300,
  "BRAKE_PAD_3_118": 2209.4000,
  "BRAKE_PAD_3_121": 1241.1700,
  "BRAKE_PAD_3_123": 444.7000,
  "BRAKE_PAD_3_134": 555.2100,
  "BRAKE_PAD_3_137": 433.7200,
  "BRAKE_PAD_3_149": 447.5300,
  "BRAKE_PAD_3_161": 638.1800,
  "BRAKE_PAD_3_165": 189.6300,
  "BRAKE_PAD_3_170": 548.3700,
  "BRAKE_PAD_3_176": 1681.4400,
  "BRAKE_PAD_3_179": 373.3900,
  "BRAKE_PAD_3_180": 362.9500,
  "BRAKE_PAD_3_192": 445.0000,
  "BRAKE_PAD_3_198": 302.1100,
  "BRAKE_PAD_3_224": 903.4800,
  "BRAKE_PAD_3_227": 1091.6500,
  "BRAKE_PAD_3_288": 4061.2400,
  "BRAKE_PAD_3_295": 3918.8500,
  "BRAKE_PAD_3_307": 1321.0900,
]#;

original_service_level = #[
  "BRAKE_PAD_1_005": 0.9800,
  "BRAKE_PAD_1_049": 0.9000,
  "BRAKE_PAD_1_079": 0.9000,
  "BRAKE_PAD_1_083": 0.9800,
  "BRAKE_PAD_1_097": 0.9500,
  "BRAKE_PAD_1_108": 0.9800,
  "BRAKE_PAD_1_115": 0.9500,
  "BRAKE_PAD_1_124": 0.9800,
  "BRAKE_PAD_1_125": 0.9500,
  "BRAKE_PAD_1_148": 0.9000,
  "BRAKE_PAD_1_150": 0.9500,
  "BRAKE_PAD_1_176": 0.9800,
  "BRAKE_PAD_1_177": 0.9800,
  "BRAKE_PAD_1_179": 0.9000,
  "BRAKE_PAD_1_181": 0.9500,
  "BRAKE_PAD_1_183": 0.9800,
  "BRAKE_PAD_2_003": 0.9800,
  "BRAKE_PAD_2_007": 0.9000,
  "BRAKE_PAD_2_031": 0.9800,
  "BRAKE_PAD_2_042": 0.9800,
  "BRAKE_PAD_2_045": 0.9500,
  "BRAKE_PAD_2_052": 0.9800,
  "BRAKE_PAD_2_078": 0.9800,
  "BRAKE_PAD_2_096": 0.9000,
  "BRAKE_PAD_2_116": 0.9500,
  "BRAKE_PAD_2_124": 0.9500,
  "BRAKE_PAD_2_126": 0.9800,
  "BRAKE_PAD_2_127": 0.9500,
  "BRAKE_PAD_2_130": 0.9500,
  "BRAKE_PAD_2_146": 0.9500,
  "BRAKE_PAD_2_159": 0.9000,
  "BRAKE_PAD_2_166": 0.9800,
  "BRAKE_PAD_2_172": 0.9000,
  "BRAKE_PAD_2_173": 0.9800,
  "BRAKE_PAD_2_181": 0.9800,
  "BRAKE_PAD_2_182": 0.9500,
  "BRAKE_PAD_2_183": 0.9800,
  "BRAKE_PAD_2_184": 0.9800,
  "BRAKE_PAD_2_188": 0.9500,
  "BRAKE_PAD_2_207": 0.9500,
  "BRAKE_PAD_2_210": 0.9000,
  "BRAKE_PAD_2_212": 0.9800,
  "BRAKE_PAD_2_223": 0.9000,
  "BRAKE_PAD_2_254": 0.9000,
  "BRAKE_PAD_2_259": 0.9000,
  "BRAKE_PAD_2_285": 0.9800,
  "BRAKE_PAD_2_295": 0.9800,
  "BRAKE_PAD_2_303": 0.9800,
  "BRAKE_PAD_2_311": 0.9800,
  "BRAKE_PAD_2_317": 0.9800,
  "BRAKE_PAD_2_324": 0.9500,
  "BRAKE_PAD_2_332": 0.9500,
  "BRAKE_PAD_2_346": 0.9500,
  "BRAKE_PAD_2_348": 0.9800,
  "BRAKE_PAD_2_352": 0.9500,
  "BRAKE_PAD_2_355": 0.9000,
  "BRAKE_PAD_2_361": 0.9800,
  "BRAKE_PAD_2_368": 0.9800,
  "BRAKE_PAD_2_369": 0.9000,
  "BRAKE_PAD_2_382": 0.9800,
  "BRAKE_PAD_2_387": 0.9800,
  "BRAKE_PAD_2_393": 0.9500,
  "BRAKE_PAD_3_008": 0.9500,
  "BRAKE_PAD_3_009": 0.9000,
  "BRAKE_PAD_3_023": 0.9800,
  "BRAKE_PAD_3_030": 0.9800,
  "BRAKE_PAD_3_033": 0.9000,
  "BRAKE_PAD_3_034": 0.9800,
  "BRAKE_PAD_3_045": 0.9500,
  "BRAKE_PAD_3_046": 0.9000,
  "BRAKE_PAD_3_049": 0.9500,
  "BRAKE_PAD_3_062": 0.9500,
  "BRAKE_PAD_3_063": 0.9800,
  "BRAKE_PAD_3_072": 0.9500,
  "BRAKE_PAD_3_075": 0.9000,
  "BRAKE_PAD_3_087": 0.9800,
  "BRAKE_PAD_3_096": 0.9800,
  "BRAKE_PAD_3_098": 0.9800,
  "BRAKE_PAD_3_118": 0.9800,
  "BRAKE_PAD_3_121": 0.9800,
  "BRAKE_PAD_3_123": 0.9000,
  "BRAKE_PAD_3_134": 0.9800,
  "BRAKE_PAD_3_137": 0.9000,
  "BRAKE_PAD_3_149": 0.9000,
  "BRAKE_PAD_3_161": 0.9500,
  "BRAKE_PAD_3_165": 0.9000,
  "BRAKE_PAD_3_170": 0.9000,
  "BRAKE_PAD_3_176": 0.9800,
  "BRAKE_PAD_3_179": 0.9500,
  "BRAKE_PAD_3_180": 0.9000,
  "BRAKE_PAD_3_192": 0.9000,
  "BRAKE_PAD_3_198": 0.9500,
  "BRAKE_PAD_3_224": 0.9800,
  "BRAKE_PAD_3_227": 0.9800,
  "BRAKE_PAD_3_288": 0.9800,
  "BRAKE_PAD_3_295": 0.9800,
  "BRAKE_PAD_3_307": 0.9800,
]#;

ABC_Class = #[
  "BRAKE_PAD_1_005": "A",
  "BRAKE_PAD_1_049": "C",
  "BRAKE_PAD_1_079": "C",
  "BRAKE_PAD_1_083": "A",
  "BRAKE_PAD_1_097": "B",
  "BRAKE_PAD_1_108": "A",
  "BRAKE_PAD_1_115": "B",
  "BRAKE_PAD_1_124": "A",
  "BRAKE_PAD_1_125": "B",
  "BRAKE_PAD_1_148": "C",
  "BRAKE_PAD_1_150": "B",
  "BRAKE_PAD_1_176": "A",
  "BRAKE_PAD_1_177": "A",
  "BRAKE_PAD_1_179": "C",
  "BRAKE_PAD_1_181": "B",
  "BRAKE_PAD_1_183": "A",
  "BRAKE_PAD_2_003": "A",
  "BRAKE_PAD_2_007": "C",
  "BRAKE_PAD_2_031": "A",
  "BRAKE_PAD_2_042": "A",
  "BRAKE_PAD_2_045": "B",
  "BRAKE_PAD_2_052": "A",
  "BRAKE_PAD_2_078": "A",
  "BRAKE_PAD_2_096": "C",
  "BRAKE_PAD_2_116": "B",
  "BRAKE_PAD_2_124": "B",
  "BRAKE_PAD_2_126": "A",
  "BRAKE_PAD_2_127": "B",
  "BRAKE_PAD_2_130": "B",
  "BRAKE_PAD_2_146": "B",
  "BRAKE_PAD_2_159": "C",
  "BRAKE_PAD_2_166": "A",
  "BRAKE_PAD_2_172": "C",
  "BRAKE_PAD_2_173": "A",
  "BRAKE_PAD_2_181": "A",
  "BRAKE_PAD_2_182": "B",
  "BRAKE_PAD_2_183": "A",
  "BRAKE_PAD_2_184": "A",
  "BRAKE_PAD_2_188": "B",
  "BRAKE_PAD_2_207": "B",
  "BRAKE_PAD_2_210": "C",
  "BRAKE_PAD_2_212": "A",
  "BRAKE_PAD_2_223": "C",
  "BRAKE_PAD_2_254": "C",
  "BRAKE_PAD_2_259": "C",
  "BRAKE_PAD_2_285": "A",
  "BRAKE_PAD_2_295": "A",
  "BRAKE_PAD_2_303": "A",
  "BRAKE_PAD_2_311": "A",
  "BRAKE_PAD_2_317": "A",
  "BRAKE_PAD_2_324": "B",
  "BRAKE_PAD_2_332": "B",
  "BRAKE_PAD_2_346": "B",
  "BRAKE_PAD_2_348": "A",
  "BRAKE_PAD_2_352": "B",
  "BRAKE_PAD_2_355": "C",
  "BRAKE_PAD_2_361": "A",
  "BRAKE_PAD_2_368": "A",
  "BRAKE_PAD_2_369": "C",
  "BRAKE_PAD_2_382": "A",
  "BRAKE_PAD_2_387": "A",
  "BRAKE_PAD_2_393": "B",
  "BRAKE_PAD_3_008": "B",
  "BRAKE_PAD_3_009": "C",
  "BRAKE_PAD_3_023": "A",
  "BRAKE_PAD_3_030": "A",
  "BRAKE_PAD_3_033": "C",
  "BRAKE_PAD_3_034": "A",
  "BRAKE_PAD_3_045": "B",
  "BRAKE_PAD_3_046": "C",
  "BRAKE_PAD_3_049": "B",
  "BRAKE_PAD_3_062": "B",
  "BRAKE_PAD_3_063": "A",
  "BRAKE_PAD_3_072": "B",
  "BRAKE_PAD_3_075": "C",
  "BRAKE_PAD_3_087": "A",
  "BRAKE_PAD_3_096": "A",
  "BRAKE_PAD_3_098": "A",
  "BRAKE_PAD_3_118": "A",
  "BRAKE_PAD_3_121": "A",
  "BRAKE_PAD_3_123": "C",
  "BRAKE_PAD_3_134": "A",
  "BRAKE_PAD_3_137": "C",
  "BRAKE_PAD_3_149": "C",
  "BRAKE_PAD_3_161": "B",
  "BRAKE_PAD_3_165": "C",
  "BRAKE_PAD_3_170": "C",
  "BRAKE_PAD_3_176": "A",
  "BRAKE_PAD_3_179": "B",
  "BRAKE_PAD_3_180": "C",
  "BRAKE_PAD_3_192": "C",
  "BRAKE_PAD_3_198": "B",
  "BRAKE_PAD_3_224": "A",
  "BRAKE_PAD_3_227": "A",
  "BRAKE_PAD_3_288": "A",
  "BRAKE_PAD_3_295": "A",
  "BRAKE_PAD_3_307": "A",
]#;

sku_to_region = #[
  "BRAKE_PAD_1_005": "TX",
  "BRAKE_PAD_1_049": "TX",
  "BRAKE_PAD_1_079": "CA",
  "BRAKE_PAD_1_083": "WI",
  "BRAKE_PAD_1_097": "CA",
  "BRAKE_PAD_1_108": "TX",
  "BRAKE_PAD_1_115": "WI",
  "BRAKE_PAD_1_124": "WI",
  "BRAKE_PAD_1_125": "CA",
  "BRAKE_PAD_1_148": "TX",
  "BRAKE_PAD_1_150": "WI",
  "BRAKE_PAD_1_176": "WI",
  "BRAKE_PAD_1_177": "TX",
  "BRAKE_PAD_1_179": "WI",
  "BRAKE_PAD_1_181": "TX",
  "BRAKE_PAD_1_183": "CA",
  "BRAKE_PAD_2_003": "WI",
  "BRAKE_PAD_2_007": "CA",
  "BRAKE_PAD_2_031": "TX",
  "BRAKE_PAD_2_042": "WI",
  "BRAKE_PAD_2_045": "TX",
  "BRAKE_PAD_2_052": "WI",
  "BRAKE_PAD_2_078": "CA",
  "BRAKE_PAD_2_096": "CA",
  "BRAKE_PAD_2_116": "WI",
  "BRAKE_PAD_2_124": "CA",
  "BRAKE_PAD_2_126": "CA",
  "BRAKE_PAD_2_127": "WI",
  "BRAKE_PAD_2_130": "WI",
  "BRAKE_PAD_2_146": "WI",
  "BRAKE_PAD_2_159": "TX",
  "BRAKE_PAD_2_166": "CA",
  "BRAKE_PAD_2_172": "TX",
  "BRAKE_PAD_2_173": "CA",
  "BRAKE_PAD_2_181": "TX",
  "BRAKE_PAD_2_182": "TX",
  "BRAKE_PAD_2_183": "CA",
  "BRAKE_PAD_2_184": "TX",
  "BRAKE_PAD_2_188": "WI",
  "BRAKE_PAD_2_207": "WI",
  "BRAKE_PAD_2_210": "TX",
  "BRAKE_PAD_2_212": "WI",
  "BRAKE_PAD_2_223": "CA",
  "BRAKE_PAD_2_254": "TX",
  "BRAKE_PAD_2_259": "WI",
  "BRAKE_PAD_2_285": "TX",
  "BRAKE_PAD_2_295": "TX",
  "BRAKE_PAD_2_303": "CA",
  "BRAKE_PAD_2_311": "TX",
  "BRAKE_PAD_2_317": "WI",
  "BRAKE_PAD_2_324": "CA",
  "BRAKE_PAD_2_332": "TX",
  "BRAKE_PAD_2_346": "CA",
  "BRAKE_PAD_2_348": "TX",
  "BRAKE_PAD_2_352": "CA",
  "BRAKE_PAD_2_355": "WI",
  "BRAKE_PAD_2_361": "CA",
  "BRAKE_PAD_2_368": "TX",
  "BRAKE_PAD_2_369": "WI",
  "BRAKE_PAD_2_382": "CA",
  "BRAKE_PAD_2_387": "CA",
  "BRAKE_PAD_2_393": "CA",
  "BRAKE_PAD_3_008": "CA",
  "BRAKE_PAD_3_009": "CA",
  "BRAKE_PAD_3_023": "WI",
  "BRAKE_PAD_3_030": "CA",
  "BRAKE_PAD_3_033": "TX",
  "BRAKE_PAD_3_034": "TX",
  "BRAKE_PAD_3_045": "TX",
  "BRAKE_PAD_3_046": "TX",
  "BRAKE_PAD_3_049": "TX",
  "BRAKE_PAD_3_062": "TX",
  "BRAKE_PAD_3_063": "TX",
  "BRAKE_PAD_3_072": "CA",
  "BRAKE_PAD_3_075": "TX",
  "BRAKE_PAD_3_087": "TX",
  "BRAKE_PAD_3_096": "CA",
  "BRAKE_PAD_3_098": "WI",
  "BRAKE_PAD_3_118": "TX",
  "BRAKE_PAD_3_121": "TX",
  "BRAKE_PAD_3_123": "TX",
  "BRAKE_PAD_3_134": "WI",
  "BRAKE_PAD_3_137": "CA",
  "BRAKE_PAD_3_149": "TX",
  "BRAKE_PAD_3_161": "CA",
  "BRAKE_PAD_3_165": "TX",
  "BRAKE_PAD_3_170": "CA",
  "BRAKE_PAD_3_176": "CA",
  "BRAKE_PAD_3_179": "CA",
  "BRAKE_PAD_3_180": "CA",
  "BRAKE_PAD_3_192": "WI",
  "BRAKE_PAD_3_198": "WI",
  "BRAKE_PAD_3_224": "WI",
  "BRAKE_PAD_3_227": "CA",
  "BRAKE_PAD_3_288": "CA",
  "BRAKE_PAD_3_295": "TX",
  "BRAKE_PAD_3_307": "CA",
]#;

regional_inventory_budget = #[
  "TX": 750000.00,
  "CA": 500000.00,
  "WI": 400000.00,
]#;

